; SWAP1 SWAP3 AND SWAP1 SWAP2 => DUP4 AND SWAP2 SWAP3 POP
(set-option :produce-proofs true)
; 
(set-info :status unknown)
(declare-fun storage_t ((_ BitVec 256) (_ BitVec 256) (_ BitVec 256) (_ BitVec 256) Int (_ BitVec 256)) (_ BitVec 256))
(declare-fun storage_s ((_ BitVec 256) (_ BitVec 256) (_ BitVec 256) (_ BitVec 256) Int (_ BitVec 256)) (_ BitVec 256))
(declare-fun exc_halt_t (Int) Bool)
(declare-fun exc_halt_s (Int) Bool)
(declare-fun sc_t (Int) (_ BitVec 6))
(declare-fun stack_t ((_ BitVec 256) (_ BitVec 256) (_ BitVec 256) (_ BitVec 256) Int (_ BitVec 6)) (_ BitVec 256))
(declare-fun stack_s ((_ BitVec 256) (_ BitVec 256) (_ BitVec 256) (_ BitVec 256) Int (_ BitVec 6)) (_ BitVec 256))
(declare-fun sc_s (Int) (_ BitVec 6))
(declare-fun used_gas_t ((_ BitVec 256) (_ BitVec 256) (_ BitVec 256) (_ BitVec 256) Int) Int)
(declare-fun used_gas_s ((_ BitVec 256) (_ BitVec 256) (_ BitVec 256) (_ BitVec 256) Int) Int)
(assert
 (exists ((x_0 (_ BitVec 256)) (x_1 (_ BitVec 256)) (x_2 (_ BitVec 256)) (x_3 (_ BitVec 256)) )(let (($x2451 (forall ((w (_ BitVec 256)) )(let ((?x248 (storage_t x_0 x_1 x_2 x_3 5 w)))
 (let ((?x7586 (storage_s x_0 x_1 x_2 x_3 5 w)))
 (= ?x7586 ?x248))))
 ))
 (let (($x886 (exc_halt_t 5)))
 (let (($x3979 (exc_halt_s 5)))
 (let (($x1669 (= $x3979 $x886)))
 (let (($x2778 (forall ((n (_ BitVec 6)) )(let ((?x919 (sc_t 5)))
 (let (($x9327 (bvsle ?x919 n)))
 (let ((?x2869 (stack_t x_0 x_1 x_2 x_3 5 n)))
 (let ((?x7589 (stack_s x_0 x_1 x_2 x_3 5 n)))
 (let (($x2870 (= ?x7589 ?x2869)))
 (or $x2870 $x9327)))))))
 ))
 (let ((?x919 (sc_t 5)))
 (let ((?x805 (sc_s 5)))
 (let (($x1787 (= ?x805 ?x919)))
 (let ((?x5221 (used_gas_t x_0 x_1 x_2 x_3 0)))
 (let ((?x5147 (used_gas_s x_0 x_1 x_2 x_3 0)))
 (let (($x5223 (= ?x5147 ?x5221)))
 (let (($x7535 (forall ((w (_ BitVec 256)) )(let ((?x5229 (storage_t x_0 x_1 x_2 x_3 0 w)))
 (let ((?x2450 (storage_s x_0 x_1 x_2 x_3 0 w)))
 (= ?x2450 ?x5229))))
 ))
 (let (($x56 (exc_halt_t 0)))
 (let (($x57 (exc_halt_s 0)))
 (let (($x58 (= $x57 $x56)))
 (let (($x7390 (forall ((n (_ BitVec 6)) )(let ((?x7531 (stack_t x_0 x_1 x_2 x_3 0 n)))
 (let ((?x7329 (stack_s x_0 x_1 x_2 x_3 0 n)))
 (let (($x7552 (= ?x7329 ?x7531)))
 (let ((?x63 (sc_t 0)))
 (let (($x3168 (bvsle ?x63 n)))
 (or $x3168 $x7552)))))))
 ))
 (let ((?x63 (sc_t 0)))
 (let ((?x72 (sc_s 0)))
 (let (($x73 (= ?x72 ?x63)))
 (let (($x9325 (= $x886 (or (exc_halt_t 4) (not (bvsle (_ bv0 6) (bvadd (_ bv63 6) (sc_t 4))))))))
 (let (($x2742 (forall ((w (_ BitVec 256)) )(let ((?x2847 (storage_t x_0 x_1 x_2 x_3 4 w)))
 (let ((?x248 (storage_t x_0 x_1 x_2 x_3 5 w)))
 (= ?x248 ?x2847))))
 ))
 (let (($x2428 (forall ((n (_ BitVec 6)) )(let ((?x9923 (sc_t 4)))
 (let ((?x1416 (bvadd (_ bv63 6) ?x9923)))
 (let (($x9334 (bvsle ?x1416 n)))
 (let ((?x2861 (stack_t x_0 x_1 x_2 x_3 4 n)))
 (let ((?x2869 (stack_t x_0 x_1 x_2 x_3 5 n)))
 (or (= ?x2869 ?x2861) $x9334)))))))
 ))
 (let (($x1820 (= (used_gas_t x_0 x_1 x_2 x_3 5) (+ 2 (used_gas_t x_0 x_1 x_2 x_3 4)))))
 (let (($x9842 (exc_halt_t 4)))
 (let (($x4473 (= $x9842 (or (exc_halt_t 3) (not (bvsle (_ bv0 6) (bvadd (_ bv60 6) (sc_t 3))))))))
 (let (($x1851 (forall ((w (_ BitVec 256)) )(let ((?x3151 (storage_t x_0 x_1 x_2 x_3 3 w)))
 (let ((?x2847 (storage_t x_0 x_1 x_2 x_3 4 w)))
 (= ?x2847 ?x3151))))
 ))
 (let (($x1846 (forall ((n (_ BitVec 6)) )(let ((?x2012 (sc_t 3)))
 (let ((?x7684 (bvadd (_ bv60 6) ?x2012)))
 (let (($x4460 (bvsle ?x7684 n)))
 (let ((?x1308 (stack_t x_0 x_1 x_2 x_3 3 n)))
 (let ((?x2861 (stack_t x_0 x_1 x_2 x_3 4 n)))
 (or (= ?x2861 ?x1308) $x4460)))))))
 ))
 (let ((?x2012 (sc_t 3)))
 (let ((?x9923 (sc_t 4)))
 (let (($x4459 (= ?x9923 ?x2012)))
 (let ((?x2830 (used_gas_t x_0 x_1 x_2 x_3 4)))
 (let ((?x5584 (bvadd (_ bv62 6) ?x2012)))
 (let ((?x2724 (stack_t x_0 x_1 x_2 x_3 3 ?x5584)))
 (let ((?x5564 (bvadd (_ bv61 6) ?x2012)))
 (let ((?x2737 (stack_t x_0 x_1 x_2 x_3 3 ?x5564)))
 (let ((?x8131 (bvadd (_ bv63 6) ?x2012)))
 (let ((?x2909 (stack_t x_0 x_1 x_2 x_3 3 ?x8131)))
 (let (($x3044 (= (stack_t x_0 x_1 x_2 x_3 4 (bvadd (_ bv63 6) ?x9923)) (stack_t x_0 x_1 x_2 x_3 3 (bvadd (_ bv60 6) ?x2012)))))
 (let (($x9995 (exc_halt_t 3)))
 (let (($x2123 (= $x9995 (or (exc_halt_t 2) (not (bvsle (_ bv0 6) (bvadd (_ bv61 6) (sc_t 2))))))))
 (let (($x1014 (forall ((w (_ BitVec 256)) )(let ((?x5250 (storage_t x_0 x_1 x_2 x_3 2 w)))
 (let ((?x3151 (storage_t x_0 x_1 x_2 x_3 3 w)))
 (= ?x3151 ?x5250))))
 ))
 (let (($x2270 (forall ((n (_ BitVec 6)) )(let ((?x4056 (sc_t 2)))
 (let ((?x8144 (bvadd (_ bv61 6) ?x4056)))
 (let (($x8175 (bvsle ?x8144 n)))
 (let ((?x5237 (stack_t x_0 x_1 x_2 x_3 2 n)))
 (let ((?x1308 (stack_t x_0 x_1 x_2 x_3 3 n)))
 (let (($x1807 (= ?x1308 ?x5237)))
 (or $x1807 $x8175))))))))
 ))
 (let ((?x4056 (sc_t 2)))
 (let (($x5148 (= ?x2012 ?x4056)))
 (let ((?x1750 (used_gas_t x_0 x_1 x_2 x_3 3)))
 (let (($x1019 (= ?x1750 (+ 3 (used_gas_t x_0 x_1 x_2 x_3 2)))))
 (let (($x903 (exc_halt_t 2)))
 (let (($x8537 (= $x903 (or (exc_halt_t 1) (not (bvsle (_ bv0 6) (bvadd (_ bv62 6) (sc_t 1))))))))
 (let (($x7394 (forall ((w (_ BitVec 256)) )(let ((?x7551 (storage_t x_0 x_1 x_2 x_3 1 w)))
 (let ((?x5250 (storage_t x_0 x_1 x_2 x_3 2 w)))
 (= ?x5250 ?x7551))))
 ))
 (let (($x2758 (forall ((n (_ BitVec 6)) )(let ((?x7489 (stack_t x_0 x_1 x_2 x_3 1 n)))
 (let ((?x5237 (stack_t x_0 x_1 x_2 x_3 2 n)))
 (let (($x1294 (= ?x5237 ?x7489)))
 (let ((?x4023 (sc_t 1)))
 (let ((?x7772 (bvadd (_ bv62 6) ?x4023)))
 (let (($x692 (bvsle ?x7772 n)))
 (or $x692 $x1294))))))))
 ))
 (let ((?x4023 (sc_t 1)))
 (let ((?x8568 (bvadd (_ bv63 6) ?x4023)))
 (let (($x7544 (= ?x4056 ?x8568)))
 (let ((?x7409 (used_gas_t x_0 x_1 x_2 x_3 2)))
 (let (($x1804 (= ?x7409 (+ 3 (used_gas_t x_0 x_1 x_2 x_3 1)))))
 (let ((?x1899 (bvor (bvnot (stack_t x_0 x_1 x_2 x_3 1 ?x8568)) (bvnot (stack_t x_0 x_1 x_2 x_3 1 (bvadd (_ bv62 6) ?x4023))))))
 (let ((?x7773 (bvadd (_ bv63 6) ?x4056)))
 (let ((?x1789 (stack_t x_0 x_1 x_2 x_3 2 ?x7773)))
 (let (($x9390 (not (= ((_ extract 6 6) (bvadd (_ bv1 7) (concat (_ bv0 1) ?x63))) (_ bv0 1)))))
 (let (($x1920 (exc_halt_t 1)))
 (let (($x2332 (forall ((w (_ BitVec 256)) )(let ((?x5229 (storage_t x_0 x_1 x_2 x_3 0 w)))
 (let ((?x7551 (storage_t x_0 x_1 x_2 x_3 1 w)))
 (= ?x7551 ?x5229))))
 ))
 (let (($x1864 (forall ((n (_ BitVec 6)) )(let ((?x7531 (stack_t x_0 x_1 x_2 x_3 0 n)))
 (let ((?x7489 (stack_t x_0 x_1 x_2 x_3 1 n)))
 (let (($x2333 (= ?x7489 ?x7531)))
 (or (bvsle (bvadd (_ bv60 6) (sc_t 0)) n) $x2333)))))
 ))
 (let (($x9527 (= ?x4023 (bvadd (_ bv1 6) ?x63))))
 (let ((?x7567 (used_gas_t x_0 x_1 x_2 x_3 1)))
 (let (($x1783 (= ?x7567 (+ 3 ?x5221))))
 (let ((?x8804 (bvadd (_ bv63 6) ?x63)))
 (let ((?x1761 (stack_t x_0 x_1 x_2 x_3 0 ?x8804)))
 (let ((?x5634 (bvadd (_ bv62 6) ?x63)))
 (let ((?x1545 (stack_t x_0 x_1 x_2 x_3 0 ?x5634)))
 (let (($x1852 (= (stack_t x_0 x_1 x_2 x_3 1 (bvadd (_ bv61 6) ?x63)) (stack_t x_0 x_1 x_2 x_3 0 (bvadd (_ bv61 6) ?x63)))))
 (let ((?x1839 (bvadd (_ bv60 6) ?x63)))
 (let ((?x1840 (stack_t x_0 x_1 x_2 x_3 0 ?x1839)))
 (let (($x6247 (= $x3979 (or (exc_halt_s 4) (not (bvsle (_ bv0 6) (bvadd (_ bv61 6) (sc_s 4))))))))
 (let (($x7426 (forall ((w (_ BitVec 256)) )(let ((?x7603 (storage_s x_0 x_1 x_2 x_3 4 w)))
 (let ((?x7586 (storage_s x_0 x_1 x_2 x_3 5 w)))
 (= ?x7586 ?x7603))))
 ))
 (let (($x1757 (forall ((n (_ BitVec 6)) )(let ((?x4305 (sc_s 4)))
 (let ((?x6321 (bvadd (_ bv61 6) ?x4305)))
 (let (($x6251 (bvsle ?x6321 n)))
 (let ((?x7607 (stack_s x_0 x_1 x_2 x_3 4 n)))
 (let ((?x7589 (stack_s x_0 x_1 x_2 x_3 5 n)))
 (let (($x2596 (= ?x7589 ?x7607)))
 (or $x2596 $x6251))))))))
 ))
 (let ((?x4305 (sc_s 4)))
 (let (($x7713 (= ?x805 ?x4305)))
 (let ((?x39 (used_gas_s x_0 x_1 x_2 x_3 5)))
 (let (($x7419 (= ?x39 (+ 3 (used_gas_s x_0 x_1 x_2 x_3 4)))))
 (let ((?x7729 (bvadd (_ bv62 6) ?x4305)))
 (let ((?x7423 (stack_s x_0 x_1 x_2 x_3 4 ?x7729)))
 (let (($x1594 (= (stack_s x_0 x_1 x_2 x_3 5 (bvadd (_ bv62 6) ?x805)) ?x7423)))
 (let ((?x8764 (bvadd (_ bv63 6) ?x4305)))
 (let ((?x7441 (stack_s x_0 x_1 x_2 x_3 4 ?x8764)))
 (let (($x1592 (= (stack_s x_0 x_1 x_2 x_3 5 (bvadd (_ bv61 6) ?x805)) ?x7441)))
 (let ((?x9439 (bvadd (_ bv63 6) ?x805)))
 (let ((?x7421 (stack_s x_0 x_1 x_2 x_3 5 ?x9439)))
 (let (($x1918 (= ?x7421 (stack_s x_0 x_1 x_2 x_3 4 (bvadd (_ bv61 6) ?x4305)))))
 (let (($x64 (exc_halt_s 4)))
 (let (($x5482 (= $x64 (or (exc_halt_s 3) (not (bvsle (_ bv0 6) (bvadd (_ bv62 6) (sc_s 3))))))))
 (let (($x7431 (forall ((w (_ BitVec 256)) )(let ((?x7625 (storage_s x_0 x_1 x_2 x_3 3 w)))
 (let ((?x7603 (storage_s x_0 x_1 x_2 x_3 4 w)))
 (= ?x7603 ?x7625))))
 ))
 (let (($x7429 (forall ((n (_ BitVec 6)) )(let ((?x275 (sc_s 3)))
 (let ((?x8073 (bvadd (_ bv62 6) ?x275)))
 (let (($x8082 (bvsle ?x8073 n)))
 (let ((?x2366 (stack_s x_0 x_1 x_2 x_3 3 n)))
 (let ((?x7607 (stack_s x_0 x_1 x_2 x_3 4 n)))
 (let (($x7542 (= ?x7607 ?x2366)))
 (or $x7542 $x8082))))))))
 ))
 (let ((?x275 (sc_s 3)))
 (let (($x7720 (= ?x4305 ?x275)))
 (let ((?x7614 (used_gas_s x_0 x_1 x_2 x_3 4)))
 (let (($x7445 (= ?x7614 (+ 3 (used_gas_s x_0 x_1 x_2 x_3 3)))))
 (let (($x292 (exc_halt_s 3)))
 (let (($x6892 (= $x292 (or (exc_halt_s 2) (not (bvsle (_ bv0 6) (bvadd (_ bv62 6) (sc_s 2))))))))
 (let (($x7439 (forall ((w (_ BitVec 256)) )(let ((?x7635 (storage_s x_0 x_1 x_2 x_3 2 w)))
 (let ((?x7625 (storage_s x_0 x_1 x_2 x_3 3 w)))
 (= ?x7625 ?x7635))))
 ))
 (let (($x2053 (forall ((n (_ BitVec 6)) )(let ((?x7367 (stack_s x_0 x_1 x_2 x_3 2 n)))
 (let ((?x2366 (stack_s x_0 x_1 x_2 x_3 3 n)))
 (let (($x7448 (= ?x2366 ?x7367)))
 (let ((?x218 (sc_s 2)))
 (let ((?x8738 (bvadd (_ bv62 6) ?x218)))
 (let (($x6881 (bvsle ?x8738 n)))
 (or $x6881 $x7448))))))))
 ))
 (let ((?x218 (sc_s 2)))
 (let ((?x9500 (bvadd (_ bv63 6) ?x218)))
 (let (($x8760 (= ?x275 ?x9500)))
 (let ((?x7632 (used_gas_s x_0 x_1 x_2 x_3 3)))
 (let (($x7457 (= ?x7632 (+ 3 (used_gas_s x_0 x_1 x_2 x_3 2)))))
 (let ((?x2466 (bvor (bvnot (stack_s x_0 x_1 x_2 x_3 2 ?x9500)) (bvnot (stack_s x_0 x_1 x_2 x_3 2 (bvadd (_ bv62 6) ?x218))))))
 (let ((?x8728 (bvadd (_ bv63 6) ?x275)))
 (let ((?x7456 (stack_s x_0 x_1 x_2 x_3 3 ?x8728)))
 (let (($x247 (exc_halt_s 2)))
 (let (($x5682 (= $x247 (or (exc_halt_s 1) (not (bvsle (_ bv0 6) (bvadd (_ bv60 6) (sc_s 1))))))))
 (let (($x7541 (forall ((w (_ BitVec 256)) )(let ((?x7345 (storage_s x_0 x_1 x_2 x_3 1 w)))
 (let ((?x7635 (storage_s x_0 x_1 x_2 x_3 2 w)))
 (= ?x7635 ?x7345))))
 ))
 (let (($x2465 (forall ((n (_ BitVec 6)) )(let ((?x7341 (stack_s x_0 x_1 x_2 x_3 1 n)))
 (let ((?x7367 (stack_s x_0 x_1 x_2 x_3 2 n)))
 (let (($x7474 (= ?x7367 ?x7341)))
 (let ((?x154 (sc_s 1)))
 (let ((?x5698 (bvadd (_ bv60 6) ?x154)))
 (let (($x5671 (bvsle ?x5698 n)))
 (or $x5671 $x7474))))))))
 ))
 (let ((?x154 (sc_s 1)))
 (let (($x9488 (= ?x218 ?x154)))
 (let ((?x7638 (used_gas_s x_0 x_1 x_2 x_3 2)))
 (let (($x302 (= ?x7638 (+ 3 (used_gas_s x_0 x_1 x_2 x_3 1)))))
 (let ((?x7799 (bvadd (_ bv62 6) ?x154)))
 (let ((?x1652 (stack_s x_0 x_1 x_2 x_3 1 ?x7799)))
 (let ((?x8738 (bvadd (_ bv62 6) ?x218)))
 (let ((?x1832 (stack_s x_0 x_1 x_2 x_3 2 ?x8738)))
 (let ((?x8741 (bvadd (_ bv61 6) ?x218)))
 (let ((?x1615 (stack_s x_0 x_1 x_2 x_3 2 ?x8741)))
 (let ((?x9701 (bvadd (_ bv63 6) ?x154)))
 (let ((?x7492 (stack_s x_0 x_1 x_2 x_3 1 ?x9701)))
 (let ((?x5689 (bvadd (_ bv60 6) ?x218)))
 (let ((?x1611 (stack_s x_0 x_1 x_2 x_3 2 ?x5689)))
 (let ((?x7466 (stack_s x_0 x_1 x_2 x_3 2 ?x9500)))
 (let (($x7470 (forall ((w (_ BitVec 256)) )(let ((?x2450 (storage_s x_0 x_1 x_2 x_3 0 w)))
 (let ((?x7345 (storage_s x_0 x_1 x_2 x_3 1 w)))
 (= ?x7345 ?x2450))))
 ))
 (let (($x2383 (forall ((n (_ BitVec 6)) )(let ((?x72 (sc_s 0)))
 (let ((?x6422 (bvadd (_ bv62 6) ?x72)))
 (let (($x6424 (bvsle ?x6422 n)))
 (let ((?x7329 (stack_s x_0 x_1 x_2 x_3 0 n)))
 (let ((?x7341 (stack_s x_0 x_1 x_2 x_3 1 n)))
 (let (($x345 (= ?x7341 ?x7329)))
 (or $x345 $x6424))))))))
 ))
 (let (($x7476 (= ?x154 ?x72)))
 (let ((?x7661 (used_gas_s x_0 x_1 x_2 x_3 1)))
 (let (($x7477 (= ?x7661 (+ 3 ?x5147))))
 (let (($x7513 (forall ((w (_ BitVec 256)) )(let ((?x2450 (storage_s x_0 x_1 x_2 x_3 0 w)))
 (= ?x2450 (_ bv0 256))))
 ))
 (let (($x7514 (= ?x5147 0)))
 (let (($x5037 (not $x57)))
 (let (($x1227 (= (stack_s x_0 x_1 x_2 x_3 0 (_ bv3 6)) x_3)))
 (let (($x1229 (= (stack_s x_0 x_1 x_2 x_3 0 (_ bv2 6)) x_2)))
 (let (($x7511 (= (stack_s x_0 x_1 x_2 x_3 0 (_ bv1 6)) x_1)))
 (let (($x7517 (= (stack_s x_0 x_1 x_2 x_3 0 (_ bv0 6)) x_0)))
 (let (($x1567 (= ?x72 (_ bv4 6))))
 (and $x1567 $x7517 $x7511 $x1229 $x1227 $x5037 $x7514 $x7513 (= ?x7492 (stack_s x_0 x_1 x_2 x_3 0 (bvadd (_ bv62 6) ?x72))) (= ?x1652 (stack_s x_0 x_1 x_2 x_3 0 (bvadd (_ bv63 6) ?x72))) $x7477 $x7476 $x2383 $x7470 (= (exc_halt_s 1) (or $x57 (not (bvsle (_ bv0 6) (bvadd (_ bv62 6) ?x72))))) (= ?x7466 (stack_s x_0 x_1 x_2 x_3 1 (bvadd (_ bv60 6) ?x154))) (= ?x1611 ?x7492) (= ?x1615 (stack_s x_0 x_1 x_2 x_3 1 (bvadd (_ bv61 6) ?x154))) (= ?x1832 ?x1652) $x302 $x9488 $x2465 $x7541 $x5682 (= ?x7456 (bvnot ?x2466)) $x7457 $x8760 $x2053 $x7439 $x6892 (= ?x7441 (stack_s x_0 x_1 x_2 x_3 3 (bvadd (_ bv62 6) ?x275))) (= ?x7423 ?x7456) $x7445 $x7720 $x7429 $x7431 $x5482 $x1918 $x1592 $x1594 $x7419 $x7713 $x1757 $x7426 $x6247 (= (stack_t x_0 x_1 x_2 x_3 1 ?x8568) ?x1840) (= (stack_t x_0 x_1 x_2 x_3 1 ?x1839) ?x1840) $x1852 (= (stack_t x_0 x_1 x_2 x_3 1 ?x5634) ?x1545) (= (stack_t x_0 x_1 x_2 x_3 1 ?x8804) ?x1761) $x1783 $x9527 $x1864 $x2332 (= $x1920 (or $x56 (not (bvsle (_ bv0 6) ?x1839)) $x9390)) (= ?x1789 (bvnot ?x1899)) $x1804 $x7544 $x2758 $x7394 $x8537 (= ?x2909 (stack_t x_0 x_1 x_2 x_3 2 (bvadd (_ bv61 6) ?x4056))) (= ?x2737 ?x1789) (= ?x2724 (stack_t x_0 x_1 x_2 x_3 2 (bvadd (_ bv62 6) ?x4056))) $x1019 $x5148 $x2270 $x1014 $x2123 $x3044 (= (stack_t x_0 x_1 x_2 x_3 4 (bvadd (_ bv60 6) ?x9923)) ?x2909) (= (stack_t x_0 x_1 x_2 x_3 4 (bvadd (_ bv61 6) ?x9923)) ?x2737) (= (stack_t x_0 x_1 x_2 x_3 4 (bvadd (_ bv62 6) ?x9923)) ?x2724) (= ?x2830 (+ 3 ?x1750)) $x4459 $x1846 $x1851 $x4473 $x1820 (= ?x919 (bvadd (_ bv63 6) ?x9923)) $x2428 $x2742 $x9325 $x73 $x7390 $x58 $x7535 $x5223 (not (and $x1787 $x2778 $x1669 $x2451))))))))))))))))))))))))))))))))))))))))))))))))))))))))))))))))))))))))))))))))))))))))))))))))))))))))))))))))))))))))))))))))))))))))))))))))
 )
(check-sat)
(get-proof)
